100
100
100
100
99
97
97
95
95
95
94
93
92
91
90
89
89
88
87
87
86
84
83
82
80
80
80
80
80
80
79
79
79
79
78
76
76
76
76
73
73
72
71
71
70
69
69
69
69
68
67
66
66
66
64
64
64
62
62
62
62
61
60
60
59
58
58
58
58
57
57
56
56
56
56
56
53
52
50
49
48
47
44
44
43
42
40
39
37
37
36
36
36
35
35
34
33
33
33
32
30
30
